nNurses = 192;
nHours = 36;
minHours = 7;
maxHours = 8;
maxConsec = 6;
maxPresence = 35;
demand = [25, 20, 18, 22, 24, 22, 20, 17, 15, 10, 15, 19, 14, 9, 11, 8, 12, 16, 19, 18, 18, 18, 14, 9, 12, 16, 12, 10, 8, 9, 7, 9, 9, 6, 8, 12];
